Minimize
 obj: - 19 x_0_0 - 19 x_0_1 - 17 x_1_0 - 17 x_1_1 - 18 x_2_0 - 18 x_2_1 
 - 19 x_3_0 - 19 x_3_1 - 17 x_4_0 - 17 x_4_1 - 18 x_5_0 - 18 x_5_1 

Subject To 
 ohc_item_0: + 1 x_0_0 + 1 x_0_1 + 1 x_0_2  = 1.0
 ohc_item_1: + 1 x_1_0 + 1 x_1_1 + 1 x_1_2  = 1.0
 ohc_item_2: + 1 x_2_0 + 1 x_2_1 + 1 x_2_2  = 1.0
 ohc_item_3: + 1 x_3_0 + 1 x_3_1 + 1 x_3_2  = 1.0
 ohc_item_4: + 1 x_4_0 + 1 x_4_1 + 1 x_4_2  = 1.0
 ohc_item_5: + 1 x_5_0 + 1 x_5_1 + 1 x_5_2  = 1.0
 knapsack_0: + 5 x_0_0 + 5 x_1_0 + 5 x_2_0 + 5 x_3_0 + 5 x_4_0 + 5 x_5_0 
  <= 8.0
 knapsack_1: + 5 x_0_1 + 5 x_1_1 + 5 x_2_1 + 5 x_3_1 + 5 x_4_1 + 5 x_5_1 
  <= 8.0

Bounds

Binary
 x_0_0 x_0_1 x_1_0 x_1_1 x_2_0 x_2_1 x_3_0 x_3_1 x_4_0 x_4_1 x_5_0 x_5_1 x_0_2
  x_1_2 x_2_2 x_3_2 x_4_2 x_5_2
General

End